db/data/6510297223945303262726012842786027278.z3.out
sat
-------------------
744.497563699
